1600 3120
1 2 3
1 41 3
2 3 3
2 42 3
3 4 3
3 43 4
4 5 5
4 44 4
5 6 3
5 45 1
6 7 3
6 46 4
7 8 4
7 47 3
8 9 2
8 48 3
9 10 3
9 49 2
10 11 5
10 50 3
11 12 5
11 51 1
12 13 2
12 52 3
13 14 2
13 53 1
14 15 3
14 54 2
15 16 1
15 55 2
16 17 4
16 56 4
17 18 1
17 57 1
18 19 1
18 58 1
19 20 5
19 59 1
20 21 2
20 60 1
21 22 1
21 61 3
22 23 1
22 62 4
23 24 1
23 63 4
24 25 5
24 64 5
25 26 1
25 65 5
26 27 2
26 66 1
27 28 2
27 67 5
28 29 1
28 68 4
29 30 3
29 69 4
30 31 4
30 70 5
31 32 3
31 71 4
32 33 4
32 72 3
33 34 2
33 73 3
34 35 4
34 74 1
35 36 5
35 75 2
36 37 2
36 76 3
37 38 5
37 77 4
38 39 3
38 78 2
39 40 2
39 79 4
40 80 5
41 42 2
41 81 3
42 43 3
42 82 1
43 44 3
43 83 5
44 45 2
44 84 5
45 46 2
45 85 2
46 47 1
46 86 2
47 48 5
47 87 1
48 49 2
48 88 4
49 50 2
49 89 2
50 51 3
50 90 3
51 52 3
51 91 4
52 53 1
52 92 3
53 54 1
53 93 4
54 55 2
54 94 5
55 56 3
55 95 5
56 57 4
56 96 3
57 58 5
57 97 1
58 59 2
58 98 5
59 60 5
59 99 4
60 61 2
60 100 4
61 62 3
61 101 1
62 63 3
62 102 5
63 64 5
63 103 2
64 65 5
64 104 3
65 66 3
65 105 4
66 67 1
66 106 3
67 68 5
67 107 4
68 69 4
68 108 3
69 70 1
69 109 1
70 71 3
70 110 5
71 72 5
71 111 3
72 73 1
72 112 2
73 74 5
73 113 3
74 75 4
74 114 5
75 76 4
75 115 2
76 77 1
76 116 3
77 78 2
77 117 1
78 79 4
78 118 5
79 80 2
79 119 3
80 120 1
81 82 5
81 121 1
82 83 5
82 122 3
83 84 1
83 123 1
84 85 1
84 124 3
85 86 5
85 125 5
86 87 1
86 126 1
87 88 1
87 127 5
88 89 1
88 128 4
89 90 2
89 129 4
90 91 4
90 130 2
91 92 3
91 131 5
92 93 2
92 132 3
93 94 3
93 133 1
94 95 1
94 134 3
95 96 5
95 135 4
96 97 5
96 136 3
97 98 1
97 137 4
98 99 3
98 138 2
99 100 4
99 139 3
100 101 5
100 140 4
101 102 1
101 141 1
102 103 1
102 142 4
103 104 3
103 143 1
104 105 3
104 144 1
105 106 2
105 145 3
106 107 2
106 146 5
107 108 2
107 147 5
108 109 4
108 148 3
109 110 4
109 149 1
110 111 5
110 150 2
111 112 3
111 151 3
112 113 4
112 152 2
113 114 3
113 153 2
114 115 1
114 154 1
115 116 4
115 155 3
116 117 5
116 156 3
117 118 5
117 157 2
118 119 1
118 158 5
119 120 4
119 159 2
120 160 1
121 122 4
121 161 1
122 123 4
122 162 3
123 124 5
123 163 3
124 125 4
124 164 1
125 126 4
125 165 1
126 127 2
126 166 3
127 128 2
127 167 3
128 129 1
128 168 1
129 130 3
129 169 1
130 131 5
130 170 4
131 132 1
131 171 2
132 133 4
132 172 5
133 134 1
133 173 4
134 135 3
134 174 2
135 136 2
135 175 3
136 137 1
136 176 4
137 138 1
137 177 2
138 139 1
138 178 5
139 140 5
139 179 5
140 141 3
140 180 4
141 142 4
141 181 5
142 143 3
142 182 3
143 144 5
143 183 2
144 145 2
144 184 4
145 146 2
145 185 5
146 147 4
146 186 2
147 148 1
147 187 5
148 149 4
148 188 4
149 150 5
149 189 2
150 151 3
150 190 4
151 152 4
151 191 2
152 153 1
152 192 4
153 154 3
153 193 3
154 155 5
154 194 2
155 156 1
155 195 5
156 157 2
156 196 1
157 158 5
157 197 3
158 159 5
158 198 2
159 160 3
159 199 3
160 200 5
161 162 5
161 201 1
162 163 2
162 202 5
163 164 1
163 203 3
164 165 1
164 204 5
165 166 1
165 205 5
166 167 1
166 206 3
167 168 5
167 207 3
168 169 3
168 208 3
169 170 1
169 209 2
170 171 5
170 210 2
171 172 3
171 211 1
172 173 1
172 212 3
173 174 3
173 213 2
174 175 4
174 214 3
175 176 5
175 215 1
176 177 5
176 216 4
177 178 3
177 217 3
178 179 2
178 218 1
179 180 5
179 219 3
180 181 1
180 220 3
181 182 4
181 221 3
182 183 1
182 222 2
183 184 2
183 223 1
184 185 2
184 224 4
185 186 4
185 225 1
186 187 5
186 226 1
187 188 3
187 227 2
188 189 5
188 228 3
189 190 2
189 229 4
190 191 3
190 230 2
191 192 3
191 231 3
192 193 5
192 232 2
193 194 4
193 233 1
194 195 5
194 234 2
195 196 5
195 235 3
196 197 1
196 236 5
197 198 3
197 237 1
198 199 2
198 238 5
199 200 2
199 239 4
200 240 4
201 202 3
201 241 1
202 203 4
202 242 2
203 204 5
203 243 4
204 205 2
204 244 5
205 206 2
205 245 3
206 207 5
206 246 1
207 208 4
207 247 5
208 209 1
208 248 1
209 210 2
209 249 5
210 211 5
210 250 3
211 212 2
211 251 5
212 213 4
212 252 1
213 214 3
213 253 5
214 215 2
214 254 4
215 216 5
215 255 4
216 217 4
216 256 5
217 218 2
217 257 3
218 219 3
218 258 5
219 220 3
219 259 1
220 221 1
220 260 1
221 222 3
221 261 4
222 223 3
222 262 2
223 224 3
223 263 2
224 225 4
224 264 4
225 226 4
225 265 5
226 227 2
226 266 1
227 228 2
227 267 1
228 229 4
228 268 3
229 230 2
229 269 3
230 231 1
230 270 4
231 232 3
231 271 3
232 233 4
232 272 3
233 234 5
233 273 1
234 235 3
234 274 5
235 236 5
235 275 2
236 237 1
236 276 4
237 238 2
237 277 3
238 239 2
238 278 4
239 240 1
239 279 2
240 280 3
241 242 3
241 281 4
242 243 3
242 282 5
243 244 4
243 283 1
244 245 4
244 284 5
245 246 4
245 285 1
246 247 2
246 286 5
247 248 3
247 287 5
248 249 4
248 288 2
249 250 4
249 289 1
250 251 4
250 290 5
251 252 4
251 291 4
252 253 3
252 292 4
253 254 4
253 293 4
254 255 5
254 294 2
255 256 4
255 295 2
256 257 1
256 296 3
257 258 1
257 297 2
258 259 2
258 298 5
259 260 3
259 299 2
260 261 2
260 300 1
261 262 5
261 301 1
262 263 2
262 302 5
263 264 5
263 303 4
264 265 2
264 304 1
265 266 2
265 305 1
266 267 4
266 306 2
267 268 4
267 307 4
268 269 5
268 308 2
269 270 1
269 309 3
270 271 2
270 310 1
271 272 1
271 311 4
272 273 2
272 312 4
273 274 4
273 313 5
274 275 5
274 314 1
275 276 2
275 315 1
276 277 3
276 316 3
277 278 2
277 317 5
278 279 3
278 318 2
279 280 3
279 319 5
280 320 1
281 282 4
281 321 3
282 283 2
282 322 3
283 284 1
283 323 4
284 285 5
284 324 4
285 286 1
285 325 5
286 287 3
286 326 5
287 288 4
287 327 5
288 289 1
288 328 4
289 290 1
289 329 5
290 291 4
290 330 1
291 292 4
291 331 4
292 293 4
292 332 1
293 294 1
293 333 1
294 295 1
294 334 4
295 296 3
295 335 5
296 297 1
296 336 2
297 298 3
297 337 2
298 299 3
298 338 2
299 300 3
299 339 1
300 301 1
300 340 1
301 302 2
301 341 5
302 303 3
302 342 2
303 304 5
303 343 4
304 305 1
304 344 2
305 306 4
305 345 1
306 307 5
306 346 1
307 308 5
307 347 1
308 309 1
308 348 2
309 310 3
309 349 5
310 311 2
310 350 3
311 312 1
311 351 1
312 313 5
312 352 5
313 314 3
313 353 4
314 315 4
314 354 4
315 316 2
315 355 1
316 317 3
316 356 5
317 318 3
317 357 3
318 319 5
318 358 2
319 320 5
319 359 5
320 360 1
321 322 3
321 361 3
322 323 4
322 362 5
323 324 2
323 363 2
324 325 5
324 364 4
325 326 5
325 365 2
326 327 2
326 366 5
327 328 3
327 367 1
328 329 2
328 368 4
329 330 4
329 369 1
330 331 4
330 370 3
331 332 1
331 371 5
332 333 2
332 372 4
333 334 2
333 373 2
334 335 5
334 374 5
335 336 5
335 375 3
336 337 1
336 376 2
337 338 3
337 377 1
338 339 2
338 378 2
339 340 3
339 379 1
340 341 2
340 380 4
341 342 3
341 381 5
342 343 1
342 382 4
343 344 5
343 383 4
344 345 2
344 384 4
345 346 3
345 385 5
346 347 2
346 386 3
347 348 4
347 387 3
348 349 1
348 388 3
349 350 5
349 389 5
350 351 4
350 390 4
351 352 2
351 391 3
352 353 4
352 392 1
353 354 5
353 393 5
354 355 2
354 394 1
355 356 2
355 395 1
356 357 5
356 396 1
357 358 2
357 397 2
358 359 4
358 398 2
359 360 1
359 399 3
360 400 2
361 362 1
361 401 2
362 363 1
362 402 4
363 364 4
363 403 4
364 365 3
364 404 5
365 366 2
365 405 3
366 367 4
366 406 1
367 368 3
367 407 2
368 369 1
368 408 1
369 370 4
369 409 5
370 371 4
370 410 5
371 372 4
371 411 2
372 373 5
372 412 3
373 374 3
373 413 3
374 375 3
374 414 4
375 376 3
375 415 2
376 377 5
376 416 3
377 378 2
377 417 5
378 379 3
378 418 2
379 380 5
379 419 2
380 381 4
380 420 4
381 382 1
381 421 3
382 383 3
382 422 3
383 384 1
383 423 3
384 385 5
384 424 4
385 386 1
385 425 5
386 387 3
386 426 3
387 388 5
387 427 2
388 389 1
388 428 5
389 390 2
389 429 5
390 391 5
390 430 5
391 392 4
391 431 2
392 393 4
392 432 4
393 394 2
393 433 5
394 395 5
394 434 2
395 396 1
395 435 2
396 397 1
396 436 4
397 398 1
397 437 3
398 399 3
398 438 5
399 400 2
399 439 3
400 440 1
401 402 5
401 441 4
402 403 5
402 442 4
403 404 3
403 443 3
404 405 5
404 444 1
405 406 1
405 445 3
406 407 2
406 446 4
407 408 3
407 447 5
408 409 2
408 448 5
409 410 2
409 449 1
410 411 3
410 450 1
411 412 2
411 451 4
412 413 3
412 452 5
413 414 1
413 453 4
414 415 4
414 454 5
415 416 1
415 455 1
416 417 5
416 456 2
417 418 1
417 457 1
418 419 5
418 458 2
419 420 2
419 459 3
420 421 5
420 460 2
421 422 1
421 461 1
422 423 4
422 462 4
423 424 2
423 463 4
424 425 1
424 464 5
425 426 2
425 465 2
426 427 4
426 466 1
427 428 5
427 467 3
428 429 4
428 468 5
429 430 5
429 469 4
430 431 2
430 470 5
431 432 2
431 471 1
432 433 4
432 472 4
433 434 3
433 473 1
434 435 5
434 474 3
435 436 2
435 475 2
436 437 1
436 476 5
437 438 4
437 477 5
438 439 3
438 478 1
439 440 3
439 479 4
440 480 2
441 442 4
441 481 1
442 443 4
442 482 3
443 444 2
443 483 2
444 445 3
444 484 1
445 446 3
445 485 1
446 447 1
446 486 3
447 448 5
447 487 4
448 449 5
448 488 5
449 450 2
449 489 1
450 451 2
450 490 2
451 452 5
451 491 4
452 453 2
452 492 5
453 454 5
453 493 4
454 455 3
454 494 4
455 456 3
455 495 4
456 457 4
456 496 4
457 458 3
457 497 5
458 459 2
458 498 5
459 460 4
459 499 4
460 461 3
460 500 4
461 462 1
461 501 2
462 463 2
462 502 4
463 464 1
463 503 2
464 465 3
464 504 1
465 466 5
465 505 5
466 467 1
466 506 3
467 468 4
467 507 3
468 469 4
468 508 1
469 470 3
469 509 2
470 471 5
470 510 2
471 472 4
471 511 4
472 473 3
472 512 5
473 474 3
473 513 2
474 475 2
474 514 5
475 476 1
475 515 5
476 477 2
476 516 5
477 478 2
477 517 4
478 479 5
478 518 3
479 480 5
479 519 1
480 520 4
481 482 4
481 521 4
482 483 2
482 522 4
483 484 1
483 523 3
484 485 1
484 524 4
485 486 5
485 525 4
486 487 5
486 526 1
487 488 3
487 527 1
488 489 4
488 528 1
489 490 5
489 529 5
490 491 2
490 530 4
491 492 1
491 531 5
492 493 2
492 532 3
493 494 2
493 533 5
494 495 3
494 534 1
495 496 4
495 535 3
496 497 2
496 536 3
497 498 2
497 537 1
498 499 4
498 538 5
499 500 4
499 539 2
500 501 4
500 540 1
501 502 1
501 541 3
502 503 5
502 542 1
503 504 5
503 543 2
504 505 2
504 544 5
505 506 4
505 545 4
506 507 4
506 546 5
507 508 3
507 547 5
508 509 2
508 548 2
509 510 1
509 549 3
510 511 4
510 550 5
511 512 3
511 551 2
512 513 5
512 552 1
513 514 1
513 553 3
514 515 4
514 554 4
515 516 4
515 555 3
516 517 4
516 556 1
517 518 3
517 557 5
518 519 3
518 558 4
519 520 1
519 559 5
520 560 5
521 522 4
521 561 5
522 523 3
522 562 2
523 524 1
523 563 3
524 525 3
524 564 1
525 526 3
525 565 1
526 527 4
526 566 2
527 528 3
527 567 2
528 529 5
528 568 2
529 530 4
529 569 1
530 531 2
530 570 3
531 532 3
531 571 5
532 533 2
532 572 4
533 534 2
533 573 5
534 535 4
534 574 2
535 536 1
535 575 1
536 537 5
536 576 5
537 538 1
537 577 3
538 539 3
538 578 2
539 540 4
539 579 5
540 541 3
540 580 2
541 542 5
541 581 2
542 543 4
542 582 1
543 544 3
543 583 5
544 545 4
544 584 5
545 546 1
545 585 1
546 547 5
546 586 4
547 548 4
547 587 1
548 549 1
548 588 4
549 550 2
549 589 3
550 551 4
550 590 1
551 552 1
551 591 1
552 553 4
552 592 5
553 554 1
553 593 1
554 555 2
554 594 1
555 556 1
555 595 5
556 557 3
556 596 1
557 558 3
557 597 2
558 559 1
558 598 1
559 560 1
559 599 2
560 600 5
561 562 2
561 601 5
562 563 3
562 602 3
563 564 1
563 603 1
564 565 3
564 604 1
565 566 1
565 605 2
566 567 2
566 606 4
567 568 5
567 607 5
568 569 5
568 608 1
569 570 3
569 609 1
570 571 1
570 610 3
571 572 1
571 611 3
572 573 2
572 612 5
573 574 5
573 613 1
574 575 2
574 614 2
575 576 3
575 615 4
576 577 3
576 616 5
577 578 4
577 617 3
578 579 2
578 618 5
579 580 5
579 619 4
580 581 4
580 620 3
581 582 3
581 621 2
582 583 4
582 622 5
583 584 1
583 623 3
584 585 3
584 624 5
585 586 3
585 625 1
586 587 2
586 626 3
587 588 1
587 627 4
588 589 1
588 628 1
589 590 3
589 629 1
590 591 3
590 630 3
591 592 1
591 631 4
592 593 3
592 632 2
593 594 2
593 633 3
594 595 5
594 634 2
595 596 5
595 635 2
596 597 5
596 636 3
597 598 1
597 637 2
598 599 5
598 638 3
599 600 3
599 639 4
600 640 2
601 602 3
601 641 3
602 603 4
602 642 4
603 604 1
603 643 1
604 605 1
604 644 1
605 606 3
605 645 4
606 607 3
606 646 1
607 608 2
607 647 1
608 609 1
608 648 2
609 610 2
609 649 1
610 611 2
610 650 1
611 612 5
611 651 4
612 613 5
612 652 3
613 614 3
613 653 1
614 615 1
614 654 5
615 616 2
615 655 3
616 617 2
616 656 3
617 618 2
617 657 1
618 619 4
618 658 3
619 620 2
619 659 3
620 621 2
620 660 3
621 622 1
621 661 2
622 623 4
622 662 1
623 624 5
623 663 4
624 625 5
624 664 1
625 626 3
625 665 5
626 627 5
626 666 4
627 628 3
627 667 1
628 629 1
628 668 5
629 630 1
629 669 4
630 631 1
630 670 2
631 632 1
631 671 4
632 633 1
632 672 2
633 634 4
633 673 4
634 635 4
634 674 2
635 636 4
635 675 4
636 637 2
636 676 5
637 638 4
637 677 4
638 639 5
638 678 3
639 640 3
639 679 1
640 680 1
641 642 5
641 681 3
642 643 4
642 682 1
643 644 2
643 683 3
644 645 3
644 684 4
645 646 3
645 685 5
646 647 2
646 686 3
647 648 4
647 687 1
648 649 3
648 688 5
649 650 5
649 689 2
650 651 2
650 690 5
651 652 1
651 691 2
652 653 5
652 692 1
653 654 3
653 693 1
654 655 4
654 694 1
655 656 3
655 695 3
656 657 1
656 696 2
657 658 3
657 697 2
658 659 3
658 698 4
659 660 3
659 699 3
660 661 5
660 700 2
661 662 1
661 701 5
662 663 1
662 702 4
663 664 4
663 703 2
664 665 1
664 704 3
665 666 1
665 705 3
666 667 3
666 706 5
667 668 5
667 707 3
668 669 4
668 708 1
669 670 4
669 709 1
670 671 1
670 710 4
671 672 5
671 711 3
672 673 4
672 712 1
673 674 2
673 713 2
674 675 4
674 714 5
675 676 4
675 715 5
676 677 3
676 716 4
677 678 4
677 717 3
678 679 1
678 718 5
679 680 5
679 719 4
680 720 1
681 682 2
681 721 5
682 683 3
682 722 2
683 684 1
683 723 1
684 685 1
684 724 1
685 686 5
685 725 5
686 687 4
686 726 2
687 688 3
687 727 4
688 689 1
688 728 1
689 690 2
689 729 5
690 691 4
690 730 5
691 692 3
691 731 3
692 693 3
692 732 3
693 694 4
693 733 2
694 695 5
694 734 4
695 696 5
695 735 2
696 697 2
696 736 1
697 698 5
697 737 3
698 699 4
698 738 5
699 700 4
699 739 4
700 701 2
700 740 4
701 702 5
701 741 1
702 703 2
702 742 2
703 704 2
703 743 5
704 705 1
704 744 5
705 706 4
705 745 5
706 707 1
706 746 4
707 708 2
707 747 1
708 709 4
708 748 1
709 710 3
709 749 3
710 711 1
710 750 5
711 712 2
711 751 2
712 713 2
712 752 3
713 714 2
713 753 3
714 715 3
714 754 4
715 716 5
715 755 4
716 717 2
716 756 1
717 718 5
717 757 4
718 719 3
718 758 4
719 720 2
719 759 4
720 760 4
721 722 4
721 761 5
722 723 3
722 762 5
723 724 5
723 763 3
724 725 2
724 764 2
725 726 3
725 765 1
726 727 5
726 766 5
727 728 1
727 767 2
728 729 5
728 768 5
729 730 5
729 769 2
730 731 5
730 770 4
731 732 2
731 771 1
732 733 1
732 772 3
733 734 4
733 773 5
734 735 4
734 774 5
735 736 2
735 775 1
736 737 1
736 776 3
737 738 5
737 777 4
738 739 3
738 778 3
739 740 5
739 779 4
740 741 5
740 780 2
741 742 1
741 781 1
742 743 2
742 782 3
743 744 3
743 783 4
744 745 1
744 784 1
745 746 3
745 785 2
746 747 5
746 786 1
747 748 4
747 787 3
748 749 5
748 788 3
749 750 3
749 789 3
750 751 4
750 790 5
751 752 2
751 791 5
752 753 5
752 792 5
753 754 4
753 793 4
754 755 1
754 794 1
755 756 3
755 795 2
756 757 2
756 796 4
757 758 3
757 797 1
758 759 4
758 798 3
759 760 1
759 799 3
760 800 2
761 762 4
761 801 3
762 763 2
762 802 2
763 764 1
763 803 1
764 765 1
764 804 2
765 766 5
765 805 3
766 767 5
766 806 1
767 768 3
767 807 5
768 769 3
768 808 4
769 770 3
769 809 2
770 771 3
770 810 1
771 772 1
771 811 4
772 773 2
772 812 5
773 774 4
773 813 1
774 775 4
774 814 2
775 776 4
775 815 5
776 777 5
776 816 5
777 778 3
777 817 2
778 779 3
778 818 5
779 780 2
779 819 1
780 781 4
780 820 2
781 782 4
781 821 3
782 783 4
782 822 5
783 784 2
783 823 4
784 785 3
784 824 2
785 786 1
785 825 5
786 787 3
786 826 1
787 788 3
787 827 4
788 789 4
788 828 2
789 790 1
789 829 1
790 791 5
790 830 4
791 792 5
791 831 4
792 793 3
792 832 4
793 794 1
793 833 2
794 795 2
794 834 5
795 796 2
795 835 5
796 797 1
796 836 5
797 798 1
797 837 4
798 799 2
798 838 5
799 800 4
799 839 1
800 840 5
801 802 1
801 841 4
802 803 4
802 842 4
803 804 4
803 843 4
804 805 4
804 844 1
805 806 1
805 845 4
806 807 3
806 846 2
807 808 1
807 847 2
808 809 4
808 848 2
809 810 1
809 849 1
810 811 4
810 850 5
811 812 5
811 851 5
812 813 5
812 852 1
813 814 2
813 853 5
814 815 5
814 854 2
815 816 3
815 855 4
816 817 1
816 856 5
817 818 2
817 857 3
818 819 2
818 858 5
819 820 5
819 859 1
820 821 1
820 860 4
821 822 1
821 861 2
822 823 2
822 862 4
823 824 3
823 863 5
824 825 5
824 864 2
825 826 3
825 865 4
826 827 2
826 866 4
827 828 1
827 867 5
828 829 1
828 868 3
829 830 4
829 869 2
830 831 1
830 870 5
831 832 3
831 871 1
832 833 3
832 872 4
833 834 1
833 873 2
834 835 4
834 874 4
835 836 5
835 875 4
836 837 2
836 876 3
837 838 1
837 877 2
838 839 5
838 878 1
839 840 5
839 879 1
840 880 1
841 842 2
841 881 2
842 843 2
842 882 2
843 844 3
843 883 4
844 845 1
844 884 5
845 846 5
845 885 1
846 847 4
846 886 5
847 848 3
847 887 3
848 849 3
848 888 2
849 850 1
849 889 2
850 851 2
850 890 3
851 852 3
851 891 3
852 853 3
852 892 4
853 854 4
853 893 4
854 855 1
854 894 3
855 856 2
855 895 3
856 857 4
856 896 4
857 858 4
857 897 3
858 859 2
858 898 3
859 860 1
859 899 1
860 861 4
860 900 2
861 862 4
861 901 4
862 863 5
862 902 5
863 864 5
863 903 3
864 865 4
864 904 4
865 866 1
865 905 4
866 867 3
866 906 4
867 868 2
867 907 2
868 869 2
868 908 1
869 870 5
869 909 2
870 871 4
870 910 3
871 872 5
871 911 3
872 873 4
872 912 5
873 874 1
873 913 3
874 875 5
874 914 2
875 876 3
875 915 5
876 877 4
876 916 5
877 878 1
877 917 2
878 879 1
878 918 4
879 880 4
879 919 1
880 920 2
881 882 1
881 921 2
882 883 2
882 922 4
883 884 1
883 923 3
884 885 3
884 924 3
885 886 2
885 925 4
886 887 2
886 926 4
887 888 2
887 927 5
888 889 3
888 928 1
889 890 2
889 929 5
890 891 2
890 930 4
891 892 1
891 931 5
892 893 1
892 932 5
893 894 1
893 933 2
894 895 3
894 934 2
895 896 3
895 935 1
896 897 2
896 936 1
897 898 3
897 937 1
898 899 3
898 938 4
899 900 1
899 939 3
900 901 5
900 940 2
901 902 4
901 941 4
902 903 5
902 942 1
903 904 1
903 943 5
904 905 5
904 944 5
905 906 5
905 945 2
906 907 2
906 946 1
907 908 4
907 947 4
908 909 3
908 948 1
909 910 5
909 949 5
910 911 4
910 950 5
911 912 5
911 951 5
912 913 4
912 952 5
913 914 4
913 953 4
914 915 5
914 954 3
915 916 5
915 955 4
916 917 3
916 956 5
917 918 3
917 957 2
918 919 3
918 958 5
919 920 3
919 959 2
920 960 1
921 922 4
921 961 1
922 923 5
922 962 3
923 924 1
923 963 3
924 925 4
924 964 5
925 926 5
925 965 1
926 927 2
926 966 2
927 928 3
927 967 2
928 929 4
928 968 4
929 930 4
929 969 5
930 931 2
930 970 4
931 932 2
931 971 3
932 933 5
932 972 1
933 934 1
933 973 5
934 935 5
934 974 4
935 936 2
935 975 2
936 937 4
936 976 4
937 938 2
937 977 2
938 939 4
938 978 5
939 940 5
939 979 3
940 941 4
940 980 1
941 942 2
941 981 4
942 943 4
942 982 2
943 944 5
943 983 2
944 945 3
944 984 5
945 946 4
945 985 3
946 947 4
946 986 3
947 948 3
947 987 2
948 949 1
948 988 5
949 950 5
949 989 1
950 951 4
950 990 3
951 952 3
951 991 2
952 953 1
952 992 1
953 954 1
953 993 1
954 955 5
954 994 4
955 956 5
955 995 2
956 957 5
956 996 4
957 958 3
957 997 4
958 959 2
958 998 1
959 960 2
959 999 5
960 1000 2
961 962 1
961 1001 5
962 963 5
962 1002 4
963 964 4
963 1003 4
964 965 2
964 1004 2
965 966 5
965 1005 4
966 967 1
966 1006 5
967 968 1
967 1007 3
968 969 3
968 1008 5
969 970 4
969 1009 5
970 971 1
970 1010 3
971 972 3
971 1011 3
972 973 5
972 1012 5
973 974 2
973 1013 5
974 975 2
974 1014 5
975 976 4
975 1015 2
976 977 1
976 1016 4
977 978 1
977 1017 5
978 979 3
978 1018 4
979 980 5
979 1019 2
980 981 4
980 1020 4
981 982 1
981 1021 5
982 983 1
982 1022 2
983 984 4
983 1023 1
984 985 5
984 1024 3
985 986 3
985 1025 5
986 987 5
986 1026 1
987 988 2
987 1027 1
988 989 2
988 1028 3
989 990 3
989 1029 5
990 991 2
990 1030 3
991 992 5
991 1031 4
992 993 4
992 1032 1
993 994 2
993 1033 5
994 995 4
994 1034 4
995 996 4
995 1035 5
996 997 3
996 1036 4
997 998 4
997 1037 3
998 999 1
998 1038 1
999 1000 4
999 1039 2
1000 1040 5
1001 1002 4
1001 1041 2
1002 1003 1
1002 1042 2
1003 1004 5
1003 1043 3
1004 1005 5
1004 1044 4
1005 1006 5
1005 1045 1
1006 1007 2
1006 1046 1
1007 1008 2
1007 1047 4
1008 1009 2
1008 1048 4
1009 1010 1
1009 1049 2
1010 1011 2
1010 1050 2
1011 1012 5
1011 1051 5
1012 1013 1
1012 1052 5
1013 1014 5
1013 1053 5
1014 1015 5
1014 1054 3
1015 1016 4
1015 1055 5
1016 1017 5
1016 1056 5
1017 1018 3
1017 1057 3
1018 1019 3
1018 1058 3
1019 1020 1
1019 1059 3
1020 1021 4
1020 1060 3
1021 1022 2
1021 1061 3
1022 1023 2
1022 1062 2
1023 1024 1
1023 1063 1
1024 1025 2
1024 1064 1
1025 1026 2
1025 1065 5
1026 1027 2
1026 1066 2
1027 1028 5
1027 1067 4
1028 1029 1
1028 1068 1
1029 1030 5
1029 1069 3
1030 1031 4
1030 1070 3
1031 1032 4
1031 1071 4
1032 1033 5
1032 1072 4
1033 1034 5
1033 1073 2
1034 1035 4
1034 1074 2
1035 1036 3
1035 1075 2
1036 1037 2
1036 1076 5
1037 1038 3
1037 1077 3
1038 1039 2
1038 1078 2
1039 1040 2
1039 1079 2
1040 1080 2
1041 1042 1
1041 1081 5
1042 1043 3
1042 1082 1
1043 1044 5
1043 1083 5
1044 1045 4
1044 1084 1
1045 1046 5
1045 1085 4
1046 1047 1
1046 1086 3
1047 1048 2
1047 1087 5
1048 1049 1
1048 1088 3
1049 1050 4
1049 1089 4
1050 1051 5
1050 1090 4
1051 1052 1
1051 1091 1
1052 1053 1
1052 1092 3
1053 1054 3
1053 1093 3
1054 1055 2
1054 1094 2
1055 1056 2
1055 1095 3
1056 1057 5
1056 1096 3
1057 1058 4
1057 1097 3
1058 1059 5
1058 1098 1
1059 1060 2
1059 1099 3
1060 1061 5
1060 1100 1
1061 1062 5
1061 1101 2
1062 1063 3
1062 1102 3
1063 1064 4
1063 1103 3
1064 1065 2
1064 1104 5
1065 1066 5
1065 1105 4
1066 1067 3
1066 1106 4
1067 1068 1
1067 1107 4
1068 1069 1
1068 1108 3
1069 1070 4
1069 1109 1
1070 1071 2
1070 1110 3
1071 1072 5
1071 1111 2
1072 1073 1
1072 1112 4
1073 1074 3
1073 1113 3
1074 1075 1
1074 1114 2
1075 1076 3
1075 1115 2
1076 1077 1
1076 1116 2
1077 1078 3
1077 1117 4
1078 1079 2
1078 1118 2
1079 1080 4
1079 1119 3
1080 1120 2
1081 1082 2
1081 1121 5
1082 1083 4
1082 1122 2
1083 1084 5
1083 1123 2
1084 1085 4
1084 1124 1
1085 1086 4
1085 1125 5
1086 1087 5
1086 1126 3
1087 1088 4
1087 1127 5
1088 1089 5
1088 1128 4
1089 1090 3
1089 1129 3
1090 1091 4
1090 1130 5
1091 1092 3
1091 1131 5
1092 1093 3
1092 1132 3
1093 1094 3
1093 1133 5
1094 1095 4
1094 1134 1
1095 1096 3
1095 1135 3
1096 1097 2
1096 1136 5
1097 1098 5
1097 1137 2
1098 1099 3
1098 1138 4
1099 1100 2
1099 1139 1
1100 1101 2
1100 1140 3
1101 1102 4
1101 1141 1
1102 1103 4
1102 1142 3
1103 1104 1
1103 1143 5
1104 1105 1
1104 1144 1
1105 1106 4
1105 1145 5
1106 1107 5
1106 1146 3
1107 1108 4
1107 1147 4
1108 1109 4
1108 1148 5
1109 1110 2
1109 1149 5
1110 1111 3
1110 1150 4
1111 1112 5
1111 1151 3
1112 1113 1
1112 1152 2
1113 1114 1
1113 1153 3
1114 1115 5
1114 1154 1
1115 1116 4
1115 1155 5
1116 1117 5
1116 1156 3
1117 1118 3
1117 1157 4
1118 1119 2
1118 1158 1
1119 1120 3
1119 1159 1
1120 1160 5
1121 1122 3
1121 1161 2
1122 1123 2
1122 1162 2
1123 1124 5
1123 1163 1
1124 1125 2
1124 1164 3
1125 1126 3
1125 1165 2
1126 1127 4
1126 1166 2
1127 1128 2
1127 1167 1
1128 1129 2
1128 1168 2
1129 1130 4
1129 1169 2
1130 1131 3
1130 1170 2
1131 1132 4
1131 1171 5
1132 1133 5
1132 1172 3
1133 1134 2
1133 1173 1
1134 1135 3
1134 1174 5
1135 1136 5
1135 1175 5
1136 1137 4
1136 1176 4
1137 1138 5
1137 1177 1
1138 1139 4
1138 1178 4
1139 1140 3
1139 1179 1
1140 1141 2
1140 1180 4
1141 1142 3
1141 1181 4
1142 1143 3
1142 1182 1
1143 1144 3
1143 1183 5
1144 1145 5
1144 1184 3
1145 1146 3
1145 1185 3
1146 1147 1
1146 1186 1
1147 1148 2
1147 1187 2
1148 1149 2
1148 1188 5
1149 1150 1
1149 1189 4
1150 1151 1
1150 1190 5
1151 1152 4
1151 1191 3
1152 1153 5
1152 1192 1
1153 1154 1
1153 1193 1
1154 1155 3
1154 1194 4
1155 1156 3
1155 1195 4
1156 1157 2
1156 1196 3
1157 1158 1
1157 1197 1
1158 1159 1
1158 1198 1
1159 1160 2
1159 1199 1
1160 1200 4
1161 1162 4
1161 1201 2
1162 1163 1
1162 1202 4
1163 1164 2
1163 1203 3
1164 1165 2
1164 1204 5
1165 1166 2
1165 1205 3
1166 1167 3
1166 1206 1
1167 1168 1
1167 1207 5
1168 1169 1
1168 1208 4
1169 1170 3
1169 1209 5
1170 1171 1
1170 1210 4
1171 1172 3
1171 1211 4
1172 1173 2
1172 1212 1
1173 1174 3
1173 1213 5
1174 1175 4
1174 1214 1
1175 1176 2
1175 1215 3
1176 1177 2
1176 1216 4
1177 1178 4
1177 1217 4
1178 1179 1
1178 1218 2
1179 1180 5
1179 1219 1
1180 1181 5
1180 1220 5
1181 1182 3
1181 1221 3
1182 1183 4
1182 1222 5
1183 1184 4
1183 1223 5
1184 1185 4
1184 1224 4
1185 1186 2
1185 1225 3
1186 1187 2
1186 1226 2
1187 1188 2
1187 1227 4
1188 1189 5
1188 1228 5
1189 1190 3
1189 1229 2
1190 1191 5
1190 1230 2
1191 1192 2
1191 1231 5
1192 1193 3
1192 1232 1
1193 1194 1
1193 1233 3
1194 1195 4
1194 1234 2
1195 1196 2
1195 1235 4
1196 1197 1
1196 1236 3
1197 1198 1
1197 1237 3
1198 1199 2
1198 1238 2
1199 1200 3
1199 1239 1
1200 1240 1
1201 1202 2
1201 1241 2
1202 1203 5
1202 1242 2
1203 1204 2
1203 1243 1
1204 1205 2
1204 1244 4
1205 1206 4
1205 1245 2
1206 1207 2
1206 1246 1
1207 1208 5
1207 1247 1
1208 1209 3
1208 1248 5
1209 1210 5
1209 1249 2
1210 1211 1
1210 1250 3
1211 1212 4
1211 1251 5
1212 1213 2
1212 1252 2
1213 1214 2
1213 1253 5
1214 1215 5
1214 1254 5
1215 1216 2
1215 1255 1
1216 1217 3
1216 1256 1
1217 1218 1
1217 1257 4
1218 1219 2
1218 1258 5
1219 1220 1
1219 1259 3
1220 1221 1
1220 1260 4
1221 1222 2
1221 1261 3
1222 1223 3
1222 1262 3
1223 1224 1
1223 1263 1
1224 1225 4
1224 1264 4
1225 1226 4
1225 1265 4
1226 1227 1
1226 1266 3
1227 1228 2
1227 1267 5
1228 1229 2
1228 1268 5
1229 1230 5
1229 1269 3
1230 1231 3
1230 1270 2
1231 1232 2
1231 1271 1
1232 1233 3
1232 1272 4
1233 1234 4
1233 1273 5
1234 1235 4
1234 1274 3
1235 1236 1
1235 1275 4
1236 1237 1
1236 1276 5
1237 1238 5
1237 1277 3
1238 1239 5
1238 1278 4
1239 1240 1
1239 1279 2
1240 1280 4
1241 1242 2
1241 1281 2
1242 1243 3
1242 1282 5
1243 1244 3
1243 1283 4
1244 1245 3
1244 1284 3
1245 1246 5
1245 1285 4
1246 1247 2
1246 1286 2
1247 1248 1
1247 1287 5
1248 1249 4
1248 1288 5
1249 1250 3
1249 1289 2
1250 1251 5
1250 1290 5
1251 1252 3
1251 1291 5
1252 1253 4
1252 1292 2
1253 1254 3
1253 1293 4
1254 1255 2
1254 1294 2
1255 1256 3
1255 1295 4
1256 1257 1
1256 1296 3
1257 1258 3
1257 1297 1
1258 1259 4
1258 1298 4
1259 1260 4
1259 1299 3
1260 1261 5
1260 1300 1
1261 1262 2
1261 1301 2
1262 1263 2
1262 1302 2
1263 1264 5
1263 1303 1
1264 1265 1
1264 1304 3
1265 1266 2
1265 1305 3
1266 1267 5
1266 1306 2
1267 1268 5
1267 1307 5
1268 1269 5
1268 1308 5
1269 1270 4
1269 1309 1
1270 1271 1
1270 1310 3
1271 1272 5
1271 1311 3
1272 1273 1
1272 1312 4
1273 1274 1
1273 1313 1
1274 1275 4
1274 1314 3
1275 1276 3
1275 1315 1
1276 1277 5
1276 1316 1
1277 1278 1
1277 1317 4
1278 1279 2
1278 1318 2
1279 1280 1
1279 1319 5
1280 1320 2
1281 1282 1
1281 1321 1
1282 1283 1
1282 1322 1
1283 1284 2
1283 1323 2
1284 1285 3
1284 1324 3
1285 1286 1
1285 1325 2
1286 1287 4
1286 1326 5
1287 1288 4
1287 1327 1
1288 1289 1
1288 1328 4
1289 1290 4
1289 1329 4
1290 1291 4
1290 1330 4
1291 1292 2
1291 1331 4
1292 1293 5
1292 1332 2
1293 1294 2
1293 1333 1
1294 1295 5
1294 1334 2
1295 1296 5
1295 1335 1
1296 1297 2
1296 1336 2
1297 1298 4
1297 1337 5
1298 1299 5
1298 1338 5
1299 1300 2
1299 1339 2
1300 1301 3
1300 1340 3
1301 1302 1
1301 1341 1
1302 1303 5
1302 1342 1
1303 1304 5
1303 1343 5
1304 1305 1
1304 1344 5
1305 1306 5
1305 1345 5
1306 1307 2
1306 1346 1
1307 1308 3
1307 1347 3
1308 1309 3
1308 1348 2
1309 1310 2
1309 1349 1
1310 1311 1
1310 1350 1
1311 1312 2
1311 1351 2
1312 1313 4
1312 1352 1
1313 1314 5
1313 1353 1
1314 1315 3
1314 1354 1
1315 1316 1
1315 1355 1
1316 1317 2
1316 1356 1
1317 1318 4
1317 1357 3
1318 1319 2
1318 1358 1
1319 1320 5
1319 1359 3
1320 1360 5
1321 1322 5
1321 1361 1
1322 1323 3
1322 1362 2
1323 1324 2
1323 1363 3
1324 1325 3
1324 1364 2
1325 1326 5
1325 1365 3
1326 1327 5
1326 1366 3
1327 1328 3
1327 1367 2
1328 1329 4
1328 1368 5
1329 1330 4
1329 1369 3
1330 1331 2
1330 1370 3
1331 1332 3
1331 1371 2
1332 1333 3
1332 1372 1
1333 1334 4
1333 1373 2
1334 1335 1
1334 1374 4
1335 1336 1
1335 1375 4
1336 1337 2
1336 1376 3
1337 1338 2
1337 1377 4
1338 1339 4
1338 1378 2
1339 1340 2
1339 1379 4
1340 1341 4
1340 1380 3
1341 1342 2
1341 1381 5
1342 1343 4
1342 1382 3
1343 1344 4
1343 1383 1
1344 1345 4
1344 1384 2
1345 1346 1
1345 1385 2
1346 1347 4
1346 1386 5
1347 1348 4
1347 1387 2
1348 1349 1
1348 1388 4
1349 1350 4
1349 1389 3
1350 1351 4
1350 1390 4
1351 1352 4
1351 1391 1
1352 1353 5
1352 1392 5
1353 1354 3
1353 1393 5
1354 1355 4
1354 1394 3
1355 1356 1
1355 1395 1
1356 1357 3
1356 1396 5
1357 1358 2
1357 1397 4
1358 1359 1
1358 1398 3
1359 1360 3
1359 1399 2
1360 1400 5
1361 1362 4
1361 1401 1
1362 1363 3
1362 1402 5
1363 1364 1
1363 1403 4
1364 1365 3
1364 1404 5
1365 1366 2
1365 1405 3
1366 1367 4
1366 1406 5
1367 1368 2
1367 1407 3
1368 1369 4
1368 1408 4
1369 1370 1
1369 1409 2
1370 1371 2
1370 1410 1
1371 1372 1
1371 1411 3
1372 1373 3
1372 1412 4
1373 1374 1
1373 1413 3
1374 1375 5
1374 1414 4
1375 1376 5
1375 1415 1
1376 1377 3
1376 1416 5
1377 1378 5
1377 1417 3
1378 1379 5
1378 1418 5
1379 1380 1
1379 1419 1
1380 1381 4
1380 1420 2
1381 1382 4
1381 1421 4
1382 1383 1
1382 1422 4
1383 1384 1
1383 1423 4
1384 1385 5
1384 1424 5
1385 1386 3
1385 1425 4
1386 1387 2
1386 1426 5
1387 1388 5
1387 1427 1
1388 1389 4
1388 1428 1
1389 1390 2
1389 1429 5
1390 1391 5
1390 1430 4
1391 1392 1
1391 1431 4
1392 1393 5
1392 1432 5
1393 1394 5
1393 1433 2
1394 1395 1
1394 1434 4
1395 1396 2
1395 1435 3
1396 1397 2
1396 1436 2
1397 1398 2
1397 1437 1
1398 1399 1
1398 1438 1
1399 1400 3
1399 1439 5
1400 1440 2
1401 1402 1
1401 1441 1
1402 1403 1
1402 1442 1
1403 1404 3
1403 1443 3
1404 1405 2
1404 1444 4
1405 1406 3
1405 1445 4
1406 1407 2
1406 1446 4
1407 1408 4
1407 1447 1
1408 1409 1
1408 1448 2
1409 1410 5
1409 1449 5
1410 1411 1
1410 1450 1
1411 1412 3
1411 1451 1
1412 1413 4
1412 1452 3
1413 1414 3
1413 1453 1
1414 1415 5
1414 1454 2
1415 1416 3
1415 1455 1
1416 1417 4
1416 1456 3
1417 1418 1
1417 1457 2
1418 1419 5
1418 1458 4
1419 1420 5
1419 1459 5
1420 1421 2
1420 1460 1
1421 1422 2
1421 1461 3
1422 1423 4
1422 1462 2
1423 1424 2
1423 1463 2
1424 1425 3
1424 1464 1
1425 1426 5
1425 1465 1
1426 1427 1
1426 1466 2
1427 1428 4
1427 1467 3
1428 1429 2
1428 1468 3
1429 1430 2
1429 1469 4
1430 1431 3
1430 1470 4
1431 1432 2
1431 1471 4
1432 1433 5
1432 1472 3
1433 1434 4
1433 1473 4
1434 1435 5
1434 1474 4
1435 1436 3
1435 1475 4
1436 1437 1
1436 1476 4
1437 1438 2
1437 1477 3
1438 1439 2
1438 1478 4
1439 1440 3
1439 1479 1
1440 1480 3
1441 1442 3
1441 1481 5
1442 1443 1
1442 1482 4
1443 1444 5
1443 1483 2
1444 1445 3
1444 1484 4
1445 1446 2
1445 1485 1
1446 1447 1
1446 1486 5
1447 1448 1
1447 1487 3
1448 1449 2
1448 1488 4
1449 1450 3
1449 1489 4
1450 1451 1
1450 1490 1
1451 1452 4
1451 1491 5
1452 1453 1
1452 1492 4
1453 1454 1
1453 1493 5
1454 1455 3
1454 1494 1
1455 1456 1
1455 1495 1
1456 1457 3
1456 1496 2
1457 1458 2
1457 1497 5
1458 1459 2
1458 1498 5
1459 1460 2
1459 1499 1
1460 1461 2
1460 1500 5
1461 1462 3
1461 1501 5
1462 1463 5
1462 1502 1
1463 1464 3
1463 1503 2
1464 1465 1
1464 1504 2
1465 1466 3
1465 1505 2
1466 1467 4
1466 1506 4
1467 1468 5
1467 1507 1
1468 1469 1
1468 1508 5
1469 1470 5
1469 1509 2
1470 1471 4
1470 1510 2
1471 1472 5
1471 1511 4
1472 1473 3
1472 1512 2
1473 1474 4
1473 1513 5
1474 1475 2
1474 1514 5
1475 1476 1
1475 1515 3
1476 1477 5
1476 1516 1
1477 1478 2
1477 1517 5
1478 1479 4
1478 1518 3
1479 1480 2
1479 1519 2
1480 1520 4
1481 1482 1
1481 1521 1
1482 1483 2
1482 1522 4
1483 1484 5
1483 1523 2
1484 1485 3
1484 1524 2
1485 1486 3
1485 1525 5
1486 1487 1
1486 1526 3
1487 1488 3
1487 1527 1
1488 1489 5
1488 1528 4
1489 1490 3
1489 1529 4
1490 1491 2
1490 1530 3
1491 1492 4
1491 1531 1
1492 1493 4
1492 1532 3
1493 1494 4
1493 1533 4
1494 1495 3
1494 1534 3
1495 1496 3
1495 1535 3
1496 1497 4
1496 1536 5
1497 1498 2
1497 1537 3
1498 1499 4
1498 1538 1
1499 1500 5
1499 1539 4
1500 1501 1
1500 1540 1
1501 1502 1
1501 1541 1
1502 1503 4
1502 1542 4
1503 1504 2
1503 1543 3
1504 1505 3
1504 1544 1
1505 1506 1
1505 1545 2
1506 1507 3
1506 1546 2
1507 1508 1
1507 1547 5
1508 1509 3
1508 1548 2
1509 1510 1
1509 1549 3
1510 1511 5
1510 1550 3
1511 1512 3
1511 1551 4
1512 1513 5
1512 1552 4
1513 1514 2
1513 1553 1
1514 1515 3
1514 1554 1
1515 1516 5
1515 1555 1
1516 1517 1
1516 1556 5
1517 1518 5
1517 1557 4
1518 1519 1
1518 1558 1
1519 1520 4
1519 1559 5
1520 1560 3
1521 1522 3
1521 1561 4
1522 1523 3
1522 1562 3
1523 1524 4
1523 1563 2
1524 1525 3
1524 1564 2
1525 1526 4
1525 1565 1
1526 1527 1
1526 1566 5
1527 1528 5
1527 1567 1
1528 1529 4
1528 1568 2
1529 1530 4
1529 1569 2
1530 1531 2
1530 1570 2
1531 1532 2
1531 1571 2
1532 1533 3
1532 1572 4
1533 1534 3
1533 1573 3
1534 1535 5
1534 1574 1
1535 1536 3
1535 1575 1
1536 1537 5
1536 1576 5
1537 1538 5
1537 1577 1
1538 1539 3
1538 1578 5
1539 1540 2
1539 1579 4
1540 1541 1
1540 1580 2
1541 1542 1
1541 1581 2
1542 1543 4
1542 1582 5
1543 1544 4
1543 1583 2
1544 1545 3
1544 1584 4
1545 1546 4
1545 1585 1
1546 1547 5
1546 1586 2
1547 1548 5
1547 1587 5
1548 1549 2
1548 1588 3
1549 1550 4
1549 1589 2
1550 1551 3
1550 1590 1
1551 1552 2
1551 1591 5
1552 1553 5
1552 1592 4
1553 1554 2
1553 1593 5
1554 1555 4
1554 1594 5
1555 1556 3
1555 1595 3
1556 1557 3
1556 1596 2
1557 1558 1
1557 1597 5
1558 1559 4
1558 1598 2
1559 1560 3
1559 1599 3
1560 1600 3
1561 1562 4
1562 1563 2
1563 1564 1
1564 1565 4
1565 1566 4
1566 1567 1
1567 1568 3
1568 1569 3
1569 1570 4
1570 1571 3
1571 1572 4
1572 1573 4
1573 1574 4
1574 1575 2
1575 1576 3
1576 1577 4
1577 1578 1
1578 1579 4
1579 1580 4
1580 1581 4
1581 1582 4
1582 1583 3
1583 1584 4
1584 1585 1
1585 1586 1
1586 1587 3
1587 1588 2
1588 1589 5
1589 1590 5
1590 1591 5
1591 1592 2
1592 1593 1
1593 1594 1
1594 1595 3
1595 1596 2
1596 1597 2
1597 1598 5
1598 1599 4
1599 1600 1
